<number of tasks>
50

<cycle time>
1000

<order strength>
0.195


<task times>
1 203
2 171
3 277
4 504
5 226
6 233
7 204
8 139
9 33
10 104
11 293
12 173
13 439
14 407
15 129
16 502
17 142
18 207
19 239
20 62
21 87
22 245
23 61
24 35
25 157
26 24
27 204
28 192
29 100
30 466
31 141
32 191
33 256
34 402
35 179
36 121
37 452
38 116
39 151
40 441
41 472
42 243
43 170
44 219
45 251
46 109
47 201
48 90
49 130
50 92

<precedence relations>
1,37
2,37
3,37
4,10
5,8
5,9
5,13
6,11
6,14
7,12
8,37
9,15
10,17
11,16
11,19
12,18
13,19
14,20
14,23
15,23
16,22
17,23
18,21
18,25
18,26
19,26
19,49
20,24
21,27
22,28
23,32
25,29
25,30
25,31
27,34
28,33
29,36
30,39
30,49
31,35
31,48
31,50
33,37
34,38
35,41
35,43
36,39
36,40
36,42
37,44
37,45
37,46
37,47
37,49
37,50
38,48

<end>
